%nproc=8
%mem=1GB
#um062x/cc-pvdz force fchk NoSym Units=bohr scf=(xqc,tight) 
#int=ultrafine guess=mix

title

0 1
GEOMETRY

