%nproc=8
%mem=1GB
#m062x/cc-pvdz force fchk NoSym Units=bohr scf=(xqc,tight) int=ultrafine

title

0 3
GEOMETRY

