%nproc=8
#mp2/cc-pvdz force fchk NoSym Units=bohr


0 1
GEOMETRY



