%nproc=12                                                                       
%mem=1GB                                                                        
#um062x/cc-pvtz force fchk NoSym Units=bohr scf=(xqc,tight)                     
#int=ultrafine guess=mix                                                        
                                                                                
title                                                                           
                                                                                
0 1                                                                             
O          -2.4371411399       -0.0000000000        0.0568631363
C          -0.1100378490        0.0000000000        0.0029676513
C           1.4126608404       -0.0000000000        2.3148788286
C           1.3084741147       -0.0000000000       -2.3774441747
H           0.4678605522       -0.0000000000        4.1090546833
H           3.4402686192        0.0000000000        2.2568546180
H           0.2838893494       -0.0000000000       -4.1286506165
H           3.3787779648        0.0000000000       -2.4296790175
                                                                                
