%nproc=12
%mem=1GB
#um062x/cc-pvtz force fchk NoSym Units=bohr scf=(xqc,tight) 
#int=ultrafine guess=mix

title

0 1
GEOMETRY

