%nproc=12                                                                       
%mem=1GB                                                                        
#m062x/cc-pvtz force fchk NoSym Units=bohr scf=(xqc,tight) int=ultrafine        
                                                                                
title                                                                           
                                                                                
0 3                                                                             
           8
 ANT Direct Dynamics Calculation
O          -1.2896791832       -0.0000000000        0.0300906673
C          -0.0582295054        0.0000000000        0.0015704130
C           0.7475477103       -0.0000000000        1.2249807728
C           0.6924144851       -0.0000000000       -1.2580889187
H           0.2475810715       -0.0000000000        2.1744174767
H           1.8205112335        0.0000000000        1.1942756916
H           0.1502277313       -0.0000000000       -2.1847871950
H           1.7879717898        0.0000000000       -1.2857303992
                                                                                
